
Gurobi 11.0.0 (linux64) logging started Sun Mar 24 22:40:51 2024

Set parameter LogFile to value "gurobi_out/log/Mar_24_gemver_100_8.log"
Gurobi Optimizer version 11.0.0 build v11.0.0rc2 (linux64 - "CentOS Linux 7 (Core)")

CPU model: Intel Xeon E3-12xx v2 (Ivy Bridge), instruction set [SSE2|AVX]
Thread count: 24 physical cores, 24 logical processors, using up to 24 threads

Optimize a model with 4003 rows, 2890 columns and 9968 nonzeros
Model fingerprint: 0xf77c77b9
Variable types: 2058 continuous, 832 integer (416 binary)
Coefficient statistics:
  Matrix range     [1e+00, 1e+02]
  Objective range  [1e-05, 1e-01]
  Bounds range     [1e+00, 1e+00]
  RHS range        [1e-04, 8e+00]
Presolve removed 2081 rows and 1332 columns
Presolve time: 0.03s
Presolved: 1922 rows, 1558 columns, 5443 nonzeros
Variable types: 878 continuous, 680 integer (322 binary)

Root relaxation: objective 4.412309e-01, 1349 iterations, 0.04 seconds (0.02 work units)

    Nodes    |    Current Node    |     Objective Bounds      |     Work
 Expl Unexpl |  Obj  Depth IntInf | Incumbent    BestBd   Gap | It/Node Time

     0     0    0.44123    0   86          -    0.44123      -     -    0s
H    0     0                    -3440000.001    0.44122   100%     -    0s
     0     0    0.44077    0  114 -3440000.0    0.44077   100%     -    0s
     0     0    0.44077    0  116 -3440000.0    0.44077   100%     -    0s
H    0     0                       0.2216422    0.44076  98.9%     -    0s
     0     0    0.44076    0  123    0.22164    0.44076  98.9%     -    0s
     0     0    0.44076    0  118    0.22164    0.44076  98.9%     -    0s
H    0     0                       0.3327733    0.44076  32.5%     -    0s
     0     0    0.44076    0  135    0.33277    0.44076  32.5%     -    0s
     0     0    0.44073    0  120    0.33277    0.44073  32.4%     -    0s
     0     0    0.44073    0  122    0.33277    0.44073  32.4%     -    0s
H    0     0                       0.3328433    0.44073  32.4%     -    0s
     0     0    0.44051    0  123    0.33284    0.44051  32.3%     -    0s
     0     0    0.44051    0  127    0.33284    0.44051  32.3%     -    0s
     0     0    0.44051    0  125    0.33284    0.44051  32.3%     -    0s
     0     0    0.44051    0  125    0.33284    0.44051  32.3%     -    0s
     0     0    0.44051    0  124    0.33284    0.44051  32.3%     -    0s
     0     0    0.44051    0  125    0.33284    0.44051  32.3%     -    0s
     0     0    0.44051    0  126    0.33284    0.44051  32.3%     -    0s
     0     0    0.44051    0  124    0.33284    0.44051  32.3%     -    0s
     0     2    0.44051    0  123    0.33284    0.44051  32.3%     -    0s
H  107    99                       0.3328633    0.43939  32.0%  57.2    1s
*  487   328              17       0.3329033    0.43877  31.8%  26.6    1s
H 1162   442                       0.3881889    0.43800  12.8%  22.1    2s
H 4295  1198                       0.3881989    0.43565  12.2%  15.2    4s
  6287  1796    0.38821   44   23    0.38820    0.38826  0.02%  14.1    5s
 46217 11494    0.38821   56   27    0.38820    0.38821  0.00%  12.6   10s
 79042 17490     cutoff   45         0.38820    0.38821  0.00%  11.7   16s
 101122 10944    0.38820   70   27    0.38820    0.38820  0.00%  16.2   20s

Cutting planes:
  Learned: 1
  Gomory: 21
  Cover: 1
  MIR: 35
  Flow cover: 13
  Zero half: 1
  RLT: 5

Explored 117862 nodes (1975648 simplex iterations) in 21.95 seconds (10.20 work units)
Thread count was 24 (of 24 available processors)

Solution count 9: 0.388199 0.388199 0.388189 ... -3.44e+06

Optimal solution found (tolerance 1.00e-05)
Best objective 3.881988888889e-01, best bound 3.882021595139e-01, gap 0.0008%
Warning: linear constraint 855 and linear constraint 856 have the same name "PathConstr3_nopl"

Gurobi 11.0.0 (linux64) logging started Sun Mar 24 22:44:04 2024

Set parameter LogFile to value "gurobi_out/log/Mar_24_gemver_100_8.log"
Gurobi Optimizer version 11.0.0 build v11.0.0rc2 (linux64 - "CentOS Linux 7 (Core)")

CPU model: Intel Xeon E3-12xx v2 (Ivy Bridge), instruction set [SSE2|AVX]
Thread count: 24 physical cores, 24 logical processors, using up to 24 threads

Optimize a model with 4003 rows, 2890 columns and 9968 nonzeros
Model fingerprint: 0x3b1fb062
Variable types: 2058 continuous, 832 integer (416 binary)
Coefficient statistics:
  Matrix range     [1e+00, 1e+02]
  Objective range  [1e-05, 1e-01]
  Bounds range     [1e+00, 1e+00]
  RHS range        [1e-04, 8e+00]
Presolve removed 1722 rows and 1162 columns
Presolve time: 0.03s
Presolved: 2281 rows, 1728 columns, 6585 nonzeros
Variable types: 1023 continuous, 705 integer (322 binary)

Root relaxation: objective 4.412309e-01, 1314 iterations, 0.04 seconds (0.02 work units)

    Nodes    |    Current Node    |     Objective Bounds      |     Work
 Expl Unexpl |  Obj  Depth IntInf | Incumbent    BestBd   Gap | It/Node Time

     0     0    0.44123    0   85          -    0.44123      -     -    0s
H    0     0                       0.1105311    0.44123   299%     -    0s
     0     0    0.44077    0  117    0.11053    0.44077   299%     -    0s
     0     0    0.44074    0  117    0.11053    0.44074   299%     -    0s
     0     0    0.44042    0  132    0.11053    0.44042   298%     -    0s
     0     0    0.44041    0  135    0.11053    0.44041   298%     -    0s
     0     0    0.44006    0  143    0.11053    0.44006   298%     -    0s
H    0     0                       0.2217522    0.44006  98.4%     -    0s
     0     0    0.43999    0  151    0.22175    0.43999  98.4%     -    0s
H    0     0                       0.2771778    0.43986  58.7%     -    0s
     0     0    0.43986    0  146    0.27718    0.43986  58.7%     -    0s
     0     0    0.43986    0  143    0.27718    0.43986  58.7%     -    0s
     0     2    0.43986    0  138    0.27718    0.43986  58.7%     -    0s
H   34    43                       0.2771878    0.43980  58.7%   106    1s
H  103   104                       0.3328533    0.43941  32.0%  56.0    1s
H  105   104                       0.3328833    0.43941  32.0%  56.1    1s
H  113   104                       0.3328933    0.43941  32.0%  53.8    1s
*  952   441              34       0.3329033    0.43905  31.9%  24.5    1s
H 1995   950                       0.3881789    0.43123  11.1%  18.9    2s
* 3971  2159              44       0.3881989    0.38826  0.02%  14.7    3s
 14460  4765    0.38821   31  162    0.38820    0.38824  0.01%  12.7    5s
 43457  6414     cutoff   54         0.38820    0.38821  0.00%  12.8   10s

Cutting planes:
  Gomory: 11
  Implied bound: 1
  MIR: 38
  Inf proof: 3
  RLT: 8

Explored 87143 nodes (923145 simplex iterations) in 13.17 seconds (6.46 work units)
Thread count was 24 (of 24 available processors)

Solution count 10: 0.388199 0.388199 0.388179 ... 0.221752

Optimal solution found (tolerance 1.00e-05)
Best objective 3.881988888889e-01, best bound 3.882027515139e-01, gap 0.0010%
Warning: linear constraint 855 and linear constraint 856 have the same name "PathConstr3_nopl"

Gurobi 11.0.0 (linux64) logging started Sun Mar 24 22:48:04 2024

Set parameter LogFile to value "gurobi_out/log/Mar_24_gemver_100_8.log"
Gurobi Optimizer version 11.0.0 build v11.0.0rc2 (linux64 - "CentOS Linux 7 (Core)")

CPU model: Intel Xeon E3-12xx v2 (Ivy Bridge), instruction set [SSE2|AVX]
Thread count: 24 physical cores, 24 logical processors, using up to 24 threads

Optimize a model with 4003 rows, 2890 columns and 9968 nonzeros
Model fingerprint: 0xe9d6cc74
Variable types: 2058 continuous, 832 integer (416 binary)
Coefficient statistics:
  Matrix range     [1e+00, 1e+02]
  Objective range  [1e-05, 1e-01]
  Bounds range     [1e-03, 1e+00]
  RHS range        [1e-04, 8e+00]
Presolve removed 1576 rows and 1065 columns
Presolve time: 0.01s

Explored 0 nodes (0 simplex iterations) in 0.01 seconds (0.01 work units)
Thread count was 1 (of 24 available processors)

Solution count 0
No other solutions better than -1e+100

Model is infeasible
Best objective -, best bound -, gap -
Warning: linear constraint 855 and linear constraint 856 have the same name "PathConstr3_nopl"

Gurobi 11.0.0 (linux64) logging started Sun Mar 24 23:05:12 2024

Set parameter LogFile to value "gurobi_out/log/Mar_24_gemver_100_8.log"
Gurobi Optimizer version 11.0.0 build v11.0.0rc2 (linux64 - "CentOS Linux 7 (Core)")

CPU model: Intel Xeon E3-12xx v2 (Ivy Bridge), instruction set [SSE2|AVX]
Thread count: 24 physical cores, 24 logical processors, using up to 24 threads

Optimize a model with 4003 rows, 2890 columns and 9968 nonzeros
Model fingerprint: 0xe9d6cc74
Variable types: 2058 continuous, 832 integer (416 binary)
Coefficient statistics:
  Matrix range     [1e+00, 1e+02]
  Objective range  [1e-05, 1e-01]
  Bounds range     [1e-03, 1e+00]
  RHS range        [1e-04, 8e+00]
Presolve removed 1576 rows and 1065 columns
Presolve time: 0.01s

Explored 0 nodes (0 simplex iterations) in 0.01 seconds (0.01 work units)
Thread count was 1 (of 24 available processors)

Solution count 0
No other solutions better than -1e+100

Model is infeasible
Best objective -, best bound -, gap -
Warning: linear constraint 855 and linear constraint 856 have the same name "PathConstr3_nopl"
